p wcnf 103 154 155 
1 3 -86 0 
1 -49 8 0 
1 -32 -40 0 
1 -22 25 0 
1 -78 39 0 
1 86 97 0 
1 -89 -11 0 
1 -11 24 0 
1 -102 -5 0 
1 -92 65 0 
1 3 -41 0 
1 18 58 0 
1 8 -78 0 
1 -9 -61 0 
1 89 -37 0 
1 -22 6 0 
1 24 70 0 
1 -1 -2 0 
1 31 36 0 
1 -79 -2 0 
1 11 9 0 
1 76 -101 0 
1 43 -86 0 
1 -20 60 0 
1 -63 -6 0 
1 38 -6 0 
1 88 33 0 
1 5 -100 0 
1 70 -58 0 
1 -67 -28 0 
1 72 50 0 
1 76 -69 0 
1 -79 -67 0 
1 97 21 0 
1 3 -95 0 
1 7 3 0 
1 -56 46 0 
1 89 82 0 
1 -56 -87 0 
1 80 -31 0 
1 -18 -3 0 
1 -53 -62 0 
1 -23 -42 0 
1 -92 56 0 
1 -19 9 0 
1 -30 -22 0 
1 11 -47 0 
1 -30 25 0 
1 12 -56 0 
1 92 42 0 
1 -92 -26 0 
1 16 -98 0 
1 6 52 0 
1 85 -17 0 
1 -93 66 0 
1 -54 -43 0 
1 88 -39 0 
1 7 -50 0 
1 74 -13 0 
1 79 -45 0 
1 -48 46 0 
1 -88 50 0 
1 92 25 0 
1 34 -45 0 
1 -91 -12 0 
1 1 -52 0 
1 33 -70 0 
1 -85 67 0 
1 84 14 0 
1 74 -55 0 
1 12 -17 0 
1 -89 4 0 
1 29 10 0 
1 7 23 0 
1 20 71 0 
1 21 -30 0 
1 16 -63 0 
1 78 -41 0 
1 -75 103 0 
1 5 58 0 
1 -52 -69 0 
1 57 9 0 
1 65 -22 0 
1 74 -6 0 
1 -70 -36 0 
1 90 -37 0 
1 -100 95 0 
1 -70 45 0 
1 30 -83 0 
1 69 31 0 
1 -98 -52 0 
1 -91 -72 0 
1 -58 40 0 
1 36 -14 0 
1 -59 -17 0 
1 -52 10 0 
1 -13 86 0 
1 77 -44 0 
1 -37 57 0 
1 -59 51 0 
1 72 -98 0 
1 28 33 0 
1 -50 64 0 
1 -49 26 0 
1 54 -84 0 
1 4 -55 0 
1 -56 37 0 
1 -46 -41 0 
1 53 79 0 
1 -27 -99 0 
1 -23 49 0 
1 95 -103 0 
1 -21 37 0 
1 14 -88 0 
1 -56 -58 0 
1 -29 32 0 
1 -49 -24 0 
1 74 33 0 
1 95 -98 0 
1 -36 15 0 
1 -26 -67 0 
1 -52 -38 0 
1 31 -45 0 
1 93 33 0 
1 20 74 0 
1 -73 67 0 
1 -48 19 0 
1 81 -18 0 
1 103 -42 0 
1 -61 -24 0 
1 -39 -101 0 
1 68 17 0 
1 77 99 0 
1 3 66 0 
1 -86 14 0 
1 -92 -18 0 
1 60 46 0 
1 96 90 0 
1 -18 82 0 
1 -26 -102 0 
1 78 37 0 
1 63 52 0 
1 -36 24 0 
1 -102 -34 0 
1 -96 97 0 
1 26 76 0 
1 26 37 0 
1 94 -72 0 
1 -94 53 0 
1 87 -47 0 
1 40 99 0 
1 77 -53 0 
1 -64 -102 0 
1 91 93 0 
